U_100_7.txt

VEHICLE     CAPACITY  LOCATIONS  CUSTOMER  OPTIONS  PRIORITIES  NUMTYPS
10		150		121		100		200		3		4

CUSTOMER  DEMAND
0	 11
1	 20
2	 10
3	 11
4	 19
5	 14
6	 12
7	 12
8	 18
9	 17
10	 18
11	 14
12	 16
13	 18
14	 16
15	 18
16	 14
17	 12
18	 18
19	 15
20	 10
21	 15
22	 13
23	 17
24	 20
25	 17
26	 17
27	 11
28	 11
29	 11
30	 11
31	 17
32	 20
33	 14
34	 16
35	 11
36	 11
37	 12
38	 15
39	 13
40	 17
41	 20
42	 18
43	 20
44	 15
45	 20
46	 14
47	 11
48	 19
49	 16
50	 13
51	 20
52	 16
53	 15
54	 19
55	 14
56	 10
57	 17
58	 16
59	 18
60	 13
61	 10
62	 18
63	 14
64	 20
65	 18
66	 17
67	 17
68	 13
69	 16
70	 13
71	 12
72	 14
73	 11
74	 12
75	 11
76	 20
77	 18
78	 19
79	 15
80	 17
81	 10
82	 15
83	 14
84	 19
85	 11
86	 20
87	 15
88	 15
89	 18
90	 15
91	 14
92	 19
93	 19
94	 10
95	 15
96	 15
97	 16
98	 17
99	 13

LOCATION  XCOORD  YCOORD  CAP  READY  DUE  TYP  SERVICETIME
0		35		4		-1		0		720	 0		0
1		17		18		-1		150		390		 2		6
2		21		9		-1		539		659		 2		6
3		24		25		-1		183		303		 2		6
4		13		42		-1		200		320		 2		6
5		20		25		-1		0		360		 2		6
6		5		50		-1		240		480		 2		6
7		31		45		-1		50		170		 2		6
8		45		36		-1		376		496		 2		6
9		4		1		-1		201		321		 2		6
10		39		10		-1		232		352		 2		6
11		7		7		-1		264		504		 2		6
12		20		23		-1		191		431		 2		6
13		23		28		-1		360		720		 2		6
14		19		41		-1		435		555		 2		6
15		31		13		-1		0		360		 2		6
16		40		24		-1		594		714		 2		6
17		34		40		-1		0		360		 2		6
18		18		10		-1		0		360		 2		6
19		44		19		-1		0		360		 2		6
20		22		48		-1		390		630		 2		6
21		36		9		-1		0		360		 2		6
22		10		50		-1		542		662		 2		6
23		21		21		-1		188		308		 2		6
24		20		15		-1		556		676		 2		6
25		33		29		-1		0		360		 2		6
26		32		34		-1		405		525		 2		6
27		3		37		-1		428		548		 2		6
28		26		11		-1		360		720		 2		6
29		46		35		-1		188		428		 2		6
30		28		27		-1		0		360		 2		6
31		49		34		-1		401		641		 2		6
32		3		32		-1		28		148		 2		6
33		33		8		-1		113		233		 2		6
34		10		5		-1		413		533		 2		6
35		25		1		-1		185		305		 2		6
36		40		41		-1		547		667		 2		6
37		35		5		-1		360		720		 2		6
38		30		2		-1		84		204		 2		6
39		9		1		-1		481		601		 2		6
40		5		8		-1		360		720		 2		6
41		44		24		-1		371		491		 2		6
42		31		46		-1		360		720		 2		6
43		36		29		-1		416		536		 2		6
44		30		26		-1		249		489		 2		6
45		20		44		-1		517		637		 2		6
46		17		17		-1		237		477		 2		6
47		26		13		-1		110		230		 2		6
48		5		43		-1		0		360		 2		6
49		30		5		-1		557		677		 2		6
50		39		27		-1		0		360		 2		6
51		49		15		-1		0		360		 2		6
52		46		45		-1		360		720		 2		6
53		6		13		-1		156		276		 2		6
54		43		47		-1		94		334		 2		6
55		21		13		-1		454		694		 2		6
56		40		41		-1		131		371		 2		6
57		5		33		-1		360		720		 2		6
58		21		16		-1		442		562		 2		6
59		8		21		-1		360		720		 2		6
60		23		37		-1		205		325		 2		6
61		41		7		-1		344		584		 2		6
62		32		29		-1		360		720		 2		6
63		19		29		-1		363		603		 2		6
64		33		4		-1		446		566		 2		6
65		3		22		-1		0		360		 2		6
66		43		22		-1		251		491		 2		6
67		45		3		-1		597		717		 2		6
68		18		18		-1		67		187		 2		6
69		24		24		-1		505		625		 2		6
70		25		11		-1		52		292		 2		6
71		23		42		-1		352		592		 2		6
72		40		6		-1		360		720		 2		6
73		39		44		-1		0		360		 2		6
74		27		21		-1		0		360		 2		6
75		5		37		-1		449		569		 2		6
76		18		26		-1		0		360		 2		6
77		12		22		-1		443		563		 2		6
78		46		38		-1		10		250		 2		6
79		43		48		-1		140		260		 2		6
80		10		7		-1		210		450		 2		6
81		11		38		-1		393		513		 2		6
82		34		14		-1		360		720		 2		6
83		2		7		-1		360		720		 2		6
84		30		7		-1		360		720		 2		6
85		44		32		-1		360		720		 2		6
86		18		47		-1		209		329		 2		6
87		33		36		-1		169		409		 2		6
88		45		42		-1		352		592		 2		6
89		32		14		-1		81		321		 2		6
90		49		7		-1		57		177		 2		6
91		40		33		-1		542		662		 2		6
92		4		38		-1		0		360		 2		6
93		3		6		-1		0		360		 2		6
94		7		26		-1		68		188		 2		6
95		31		23		-1		360		720		 2		6
96		29		25		-1		188		308		 2		6
97		34		50		-1		360		720		 2		6
98		24		42		-1		0		360		 2		6
99		19		27		-1		380		620		 2		6
100		26		38		-1		0		360		 2		6
101		19		40		3		0		720		 1		4
102		12		12		5		0		720		 1		4
103		6		17		5		188		668		 1		4
104		9		38		3		0		720		 1		4
105		23		16		5		98		578		 1		4
106		13		41		5		0		720		 1		4
107		8		37		5		59		539		 1		4
108		17		33		4		0		720		 1		4
109		14		12		5		0		720		 1		4
110		12		43		3		0		720		 1		4
111		43		11		3		0		720		 1		4
112		27		13		5		233		713		 1		4
113		24		41		5		148		628		 1		4
114		39		15		5		141		621		 1		4
115		12		36		5		87		567		 1		4
116		16		27		5		205		685		 1		4
117		5		14		4		0		720		 1		4
118		13		15		4		0		720		 1		4
119		6		31		5		52		532		 1		4
120		23		28		5		169		649		 1		4
OPTION  LOCATION  CUSTOMER  PRIO  SERVICETIME   COST
0		113		0		0		2		0
1		118		1		0		2		0
2		120		2		0		2		0
3		103		3		0		2		0
4		107		4		0		2		0
5		115		5		0		2		0
6		101		6		0		2		0
7		119		7		0		2		0
8		108		8		0		2		0
9		102		9		0		2		0
10		107		10		0		2		0
11		101		11		0		2		0
12		102		12		0		2		0
13		102		13		0		2		0
14		119		14		0		2		0
15		117		15		0		2		0
16		116		16		0		2		0
17		107		17		0		2		0
18		105		18		0		2		0
19		104		19		0		2		0
20		1		20		0		5		0
21		2		21		0		5		0
22		3		22		0		5		0
23		4		23		0		5		0
24		5		24		0		5		0
25		6		25		0		5		0
26		7		26		0		5		0
27		8		27		0		5		0
28		9		28		0		5		0
29		10		29		0		5		0
30		11		30		0		5		0
31		12		31		0		5		0
32		13		32		0		5		0
33		14		33		0		5		0
34		15		34		0		5		0
35		16		35		0		5		0
36		17		36		0		5		0
37		18		37		0		5		0
38		19		38		0		5		0
39		20		39		0		5		0
40		21		40		1		5		0
41		111		40		0		2		0
42		22		41		1		5		0
43		104		41		0		2		0
44		23		42		0		5		0
45		112		42		1		2		0
46		24		43		1		5		0
47		102		43		0		2		0
48		25		44		1		5		0
49		102		44		0		2		0
50		26		45		1		5		0
51		119		45		0		2		0
52		27		46		1		5		0
53		111		46		0		2		0
54		28		47		1		5		0
55		119		47		0		2		0
56		29		48		0		5		0
57		111		48		1		2		0
58		30		49		1		5		0
59		101		49		0		2		0
60		31		50		0		5		0
61		112		50		1		2		0
62		32		51		0		5		0
63		104		51		1		2		0
64		33		52		1		5		0
65		111		52		0		2		0
66		34		53		0		5		0
67		107		53		1		2		0
68		35		54		0		5		0
69		105		54		1		2		0
70		36		55		1		5		0
71		116		55		0		2		0
72		37		56		1		5		0
73		107		56		0		2		0
74		38		57		1		5		0
75		103		57		0		2		0
76		39		58		1		5		0
77		110		58		0		2		0
78		40		59		1		5		0
79		109		59		0		2		0
80		41		60		0		5		0
81		105		60		2		2		0
82		120		60		1		2		0
83		42		61		0		5		0
84		102		61		1		2		0
85		112		61		2		2		0
86		43		62		1		5		0
87		113		62		2		2		0
88		114		62		0		2		0
89		44		63		1		5		0
90		116		63		2		2		0
91		110		63		0		2		0
92		45		64		2		5		0
93		114		64		0		2		0
94		116		64		1		2		0
95		46		65		1		5		0
96		102		65		0		2		0
97		120		65		2		2		0
98		47		66		1		5		0
99		105		66		0		2		0
100		102		66		2		2		0
101		48		67		1		5		0
102		106		67		2		2		0
103		110		67		0		2		0
104		49		68		0		5		0
105		111		68		1		2		0
106		101		68		2		2		0
107		50		69		2		5		0
108		106		69		1		2		0
109		111		69		0		2		0
110		51		70		2		5		0
111		120		70		0		2		0
112		111		70		1		2		0
113		52		71		0		5		0
114		108		71		2		2		0
115		101		71		1		2		0
116		53		72		2		5		0
117		109		72		0		2		0
118		118		72		1		2		0
119		54		73		1		5		0
120		106		73		2		2		0
121		103		73		0		2		0
122		55		74		2		5		0
123		102		74		0		2		0
124		101		74		1		2		0
125		56		75		2		5		0
126		113		75		1		2		0
127		104		75		0		2		0
128		57		76		1		5		0
129		101		76		0		2		0
130		119		76		2		2		0
131		58		77		2		5		0
132		109		77		0		2		0
133		102		77		1		2		0
134		59		78		2		5		0
135		106		78		1		2		0
136		102		78		0		2		0
137		60		79		1		5		0
138		120		79		0		2		0
139		101		79		2		2		0
140		61		80		1		5		0
141		62		80		2		5		0
142		114		80		0		2		0
143		63		81		0		5		0
144		64		81		2		5		0
145		110		81		1		2		0
146		65		82		0		5		0
147		66		82		1		5		0
148		113		82		2		2		0
149		67		83		0		5		0
150		68		83		1		5		0
151		111		83		2		2		0
152		69		84		1		5		0
153		70		84		0		5		0
154		116		84		2		2		0
155		71		85		2		5		0
156		72		85		1		5		0
157		101		85		0		2		0
158		73		86		1		5		0
159		74		86		0		5		0
160		114		86		2		2		0
161		75		87		1		5		0
162		76		87		2		5		0
163		104		87		0		2		0
164		77		88		1		5		0
165		78		88		2		5		0
166		118		88		0		2		0
167		79		89		0		5		0
168		80		89		1		5		0
169		103		89		2		2		0
170		81		90		2		5		0
171		82		90		0		5		0
172		107		90		1		2		0
173		83		91		1		5		0
174		84		91		2		5		0
175		120		91		0		2		0
176		85		92		1		5		0
177		86		92		0		5		0
178		112		92		2		2		0
179		87		93		1		5		0
180		88		93		2		5		0
181		108		93		0		2		0
182		89		94		2		5		0
183		90		94		0		5		0
184		106		94		1		2		0
185		91		95		2		5		0
186		92		95		0		5		0
187		102		95		1		2		0
188		93		96		1		5		0
189		94		96		0		5		0
190		102		96		2		2		0
191		95		97		2		5		0
192		96		97		1		5		0
193		112		97		0		2		0
194		97		98		2		5		0
195		98		98		0		5		0
196		111		98		1		2		0
197		99		99		1		5		0
198		100		99		2		5		0
199		101		99		0		2		0
